# Solution for model GasLib-40
# Objective value = 2.2179452808639166e+01
loadshed[innode_1] 0
loadshed[innode_2] 0
loadshed[innode_3] 0
loadshed[innode_4] 0
loadshed[innode_5] 0
loadshed[innode_6] 0
loadshed[innode_7] 0
loadshed[innode_8] 0
loadshed[source_1] -2.0540527881100412e-01
loadshed[source_2] -3.5957109469378690e-02
loadshed[source_3] 3.8165850971431103e-01
loadshed[sink_1] 0
loadshed[sink_2] 0
loadshed[sink_3] 0
loadshed[sink_4] 0
loadshed[sink_5] 0
loadshed[sink_6] 0
loadshed[sink_7] 0
loadshed[sink_8] 0
loadshed[sink_9] 0
loadshed[sink_10] 0
loadshed[sink_11] 0
loadshed[sink_12] 1
loadshed[sink_13] 0
loadshed[sink_14] 0
loadshed[sink_15] 0
loadshed[sink_16] 0
loadshed[sink_17] 0
loadshed[sink_18] 0
loadshed[sink_19] 0
loadshed[sink_20] 0
loadshed[sink_21] 3.5619584052825459e-01
loadshed[sink_22] 0
loadshed[sink_23] 0
loadshed[sink_24] 0
loadshed[sink_25] 0
loadshed[sink_26] 0
loadshed[sink_27] 0
loadshed[sink_28] 0
loadshed[sink_29] 0
flow[source_1,sink_3] 1.9056285536203131e+02
flow[innode_1,sink_16] 1.6354166666666970e+01
flow[innode_6,sink_13] 1.6725388705877261e+01
flow[sink_13,sink_14] 3.7122203921059338e-01
flow[sink_14,sink_10] -1.5982944627456074e+01
flow[sink_25,sink_26] 1.5341712311088060e+02
flow[sink_26,sink_9] 8.1770833333333655e+01
flow[sink_9,sink_18] 6.5416666666666671e+01
flow[sink_26,sink_4] 5.5292123110880269e+01
flow[sink_4,sink_20] -1.6561087502100321e+01
flow[sink_18,sink_6] 4.9062500000000313e+01
flow[sink_25,innode_8] -1.5785452202869496e+02
flow[sink_6,sink_7] 0
flow[sink_6,sink_22] 3.2708333333333641e+01
flow[sink_7,sink_24] 2.6883047191360838e+01
flow[sink_22,sink_1] 1.6354166666666970e+01
flow[sink_24,sink_21] 1.0528880524694170e+01
flow[sink_21,sink_12] 0
flow[sink_7,sink_5] -43.2372138580275
flow[sink_5,sink_17] -5.9591380524694173e+01
flow[sink_17,sink_4] -5.5499043946313918e+01
flow[sink_17,sink_8] -2.0446503245046923e+01
flow[sink_3,sink_23] 16.3541666666697
flow[sink_8,sink_20] -3.6800669911713591e+01
flow[sink_25,sink_20] 6.9715924080480590e+01
flow[sink_25,sink_15] -98.3580805352101
flow[sink_15,sink_29] -6.3817436365568263e+01
flow[sink_29,sink_28] 1.6354166666667879e+01
flow[sink_29,sink_2] 6.7248977502975237e+01
flow[sink_2,sink_15] 5.0894810836308572e+01
flow[sink_29,innode_7] -1.6377474720187783e+02
flow[innode_4,sink_19] 0
flow[sink_19,innode_3] 0
flow[innode_4,innode_5] 9.7753777960789648e+01
flow[sink_27,innode_5] -9.7753777960789648e+01
flow[sink_27,sink_19] 8.1399611294123062e+01
flow[sink_10,sink_11] 3.2708333333333641e+01
flow[sink_10,innode_2] -6.5045444627456391e+01
flow[sink_10,innode_3] 0
flow[innode_6,sink_25] -1.6725388705877261e+01
flow[sink_11,innode_1] 1.6354166666666970e+01
flow[sink_19,innode_2] 6.5045444627456391e+01
flow[source_3,innode_4] 9.7753777960789648e+01
flow[source_2,innode_7] 1.6377474720187783e+02
flow[sink_3,innode_8] 1.5785452202869496e+02
pressure[innode_1] 7.4797532655321817e+01
pressure[innode_2] 7.8387154357971241e+01
pressure[innode_3] 7.8387154357971241e+01
pressure[innode_4] 81.01325
pressure[innode_5] 8.0946009796945887e+01
pressure[innode_6] 7.4286131730758129e+01
pressure[innode_7] 81.01325
pressure[innode_8] 80.3762711721741
pressure[source_1] 81.01325
pressure[source_2] 81.01325
pressure[source_3] 81.01325
pressure[sink_1] 5.2808696013381820e+01
pressure[sink_2] 7.4929424603960086e+01
pressure[sink_3] 80.3762711721741
pressure[sink_4] 5.6451070212218561e+01
pressure[sink_5] 4.9890952644811492e+01
pressure[sink_6] 5.4909773623769190e+01
pressure[sink_7] 3.1908933516769658e+01
pressure[sink_8] 5.5101579441175843e+01
pressure[sink_9] 5.8586858427227476e+01
pressure[sink_10] 7.4949233962925362e+01
pressure[sink_11] 7.4797532655321817e+01
pressure[sink_12] 1.01325
pressure[sink_13] 7.4193927457894745e+01
pressure[sink_14] 7.4193263124434452e+01
pressure[sink_15] 7.4763264263615170e+01
pressure[sink_16] 7.3775882820504137e+01
pressure[sink_17] 54.330079755031
pressure[sink_18] 5.6219888452028819e+01
pressure[sink_19] 7.8387154357971241e+01
pressure[sink_20] 5.7666068596226808e+01
pressure[sink_21] 1.01325
pressure[sink_22] 5.3872465155736826e+01
pressure[sink_23] 8.0211553160514313e+01
pressure[sink_24] 1.1298475693142971e+00
pressure[sink_25] 7.4286131730758129e+01
pressure[sink_26] 6.3481053846938828e+01
pressure[sink_27] 80.134834069431
pressure[sink_28] 7.6337634825567633e+01
pressure[sink_29] 7.6632917099184809e+01
interdiction[source_1,sink_3] 0
interdiction[innode_1,sink_16] 0
interdiction[innode_6,sink_13] 0
interdiction[sink_13,sink_14] 0
interdiction[sink_14,sink_10] 0
interdiction[sink_25,sink_26] 0
interdiction[sink_26,sink_9] 0
interdiction[sink_9,sink_18] 0
interdiction[sink_26,sink_4] 0
interdiction[sink_4,sink_20] 0
interdiction[sink_18,sink_6] 0
interdiction[sink_25,innode_8] 0
interdiction[sink_6,sink_7] 1
interdiction[sink_6,sink_22] 0
interdiction[sink_7,sink_24] 0
interdiction[sink_22,sink_1] 0
interdiction[sink_24,sink_21] 0
interdiction[sink_21,sink_12] 0
interdiction[sink_7,sink_5] 0
interdiction[sink_5,sink_17] 0
interdiction[sink_17,sink_4] 0
interdiction[sink_17,sink_8] 0
interdiction[sink_3,sink_23] 0
interdiction[sink_8,sink_20] 0
interdiction[sink_25,sink_20] 0
interdiction[sink_25,sink_15] 0
interdiction[sink_15,sink_29] 0
interdiction[sink_29,sink_28] 0
interdiction[sink_29,sink_2] 0
interdiction[sink_2,sink_15] 0
interdiction[sink_29,innode_7] 0
interdiction[innode_4,sink_19] 1
interdiction[sink_19,innode_3] 0
interdiction[innode_4,innode_5] 0
interdiction[sink_27,innode_5] 0
interdiction[sink_27,sink_19] 0
interdiction[sink_10,sink_11] 0
interdiction[sink_10,innode_2] 0
interdiction[sink_10,innode_3] 1
interdiction[innode_6,sink_25] 0
interdiction[sink_11,innode_1] 0
interdiction[sink_19,innode_2] 0
interdiction[source_3,innode_4] 0
interdiction[source_2,innode_7] 0
interdiction[sink_3,innode_8] 0
WCcheckFlow[source_1,sink_3] 39
WCcheckFlow[innode_1,sink_16] 1
WCcheckFlow[innode_6,sink_13] 13
WCcheckFlow[sink_13,sink_14] 12
WCcheckFlow[sink_14,sink_10] 11
WCcheckFlow[sink_25,sink_26] 15
WCcheckFlow[sink_26,sink_9] 5
WCcheckFlow[sink_9,sink_18] 4
WCcheckFlow[sink_26,sink_4] 9
WCcheckFlow[sink_4,sink_20] 1
WCcheckFlow[sink_18,sink_6] 3
WCcheckFlow[sink_25,innode_8] -36
WCcheckFlow[sink_6,sink_7] 0
WCcheckFlow[sink_6,sink_22] 2
WCcheckFlow[sink_7,sink_24] 3
WCcheckFlow[sink_22,sink_1] 1
WCcheckFlow[sink_24,sink_21] 2
WCcheckFlow[sink_21,sink_12] 1
WCcheckFlow[sink_7,sink_5] -4
WCcheckFlow[sink_5,sink_17] -5
WCcheckFlow[sink_17,sink_4] -7
WCcheckFlow[sink_17,sink_8] 1
WCcheckFlow[sink_3,sink_23] 1
WCcheckFlow[sink_8,sink_20] 0
WCcheckFlow[sink_25,sink_20] 0
WCcheckFlow[sink_25,sink_15] 6
WCcheckFlow[sink_15,sink_29] 5
WCcheckFlow[sink_29,sink_28] 1
WCcheckFlow[sink_29,sink_2] 1
WCcheckFlow[sink_2,sink_15] 0
WCcheckFlow[sink_29,innode_7] 2
WCcheckFlow[innode_4,sink_19] 0
WCcheckFlow[sink_19,innode_3] 1
WCcheckFlow[innode_4,innode_5] -2
WCcheckFlow[sink_27,innode_5] 3
WCcheckFlow[sink_27,sink_19] -4
WCcheckFlow[sink_10,sink_11] 3
WCcheckFlow[sink_10,innode_2] 7
WCcheckFlow[sink_10,innode_3] 0
WCcheckFlow[innode_6,sink_25] -14
WCcheckFlow[sink_11,innode_1] 2
WCcheckFlow[sink_19,innode_2] -6
WCcheckFlow[source_3,innode_4] -1
WCcheckFlow[source_2,innode_7] -1
WCcheckFlow[sink_3,innode_8] 37
